NAME : netgen22-2-14
COMMENT : Generated using the function generateClusteredNetwork from the R-package netgen (Bossek,2015) - Number of clusters: 2
TYPE : TSP
DIMENSION : 22
EDGE_WEIGHT_TYPE : EUC_2D
NODE_COORD_SECTION
1 96.499861134 38.0148292974
2 91.6683398416 52.3013650319
3 96.8881623325 48.7677930663
4 97.3658043384 51.017024312
5 98.1791203334 47.1568569232
6 86.683078603 37.0155989893
7 97.3507268459 36.5083729292
8 98.4786548997 49.2448946086
9 85.1075311984 45.6058683696
10 92.1207400748 39.7248238985
11 96.5315157183 37.4961532393
12 4.6103363996 60.2622853226
13 32.6635562769 71.9985528141
14 28.6236059105 70.3415920953
15 15.5758871222 80.8401626344
16 23.7173538845 77.4672300175
17 27.9140416047 76.4660371123
18 28.5485841068 74.7004237266
19 15.9627907375 70.1396807714
20 36.1029075934 63.2449613226
21 20.7195271595 61.5816916169
22 32.9975798452 83.9131633973
EOF
